Minimize
	value: tt

Subject to
tt + 1000 s_1_1 > 0.0
tt - t_1_1 - 1001.401072 s_1_1  + 0.700536 s_1_8  + 0.700536 s_1_7  > -999.020003
tt + 1000 s_2_1 > 0.0
tt - t_2_1 - 1001.452650 s_2_1  + 0.726325 s_2_8  + 0.726325 s_2_7  > -992.218375
tt + 1000 s_1_2 > 0.0
tt - t_1_2 - 1000.700536 s_1_2  + 0.700536 s_1_7  > -999.043322
tt + 1000 s_2_2 > 0.0
tt - t_2_2 - 1000.726325 s_2_2  + 0.726325 s_2_7  > -992.180163
tt + 1000 s_1_3 > 0.0
tt - t_1_3 - 1001.401072 s_1_3  + 0.700536 s_1_8  + 0.700536 s_1_7  > -999.909900
tt + 1000 s_2_3 > 0.0
tt - t_2_3 - 1001.452650 s_2_3  + 0.726325 s_2_8  + 0.726325 s_2_7  > -998.806992
tt + 1000 s_1_4 > 0.0
tt - t_1_4 - 1000.700536 s_1_4  + 0.700536 s_1_7  > -999.879400
tt + 1000 s_2_4 > 0.0
tt - t_2_4 - 1000.726325 s_2_4  + 0.726325 s_2_7  > -998.328224
tt + 1000 s_1_5 > 0.0
tt - t_1_5 - 1000.700536 s_1_5  + 0.700536 s_1_8  > -999.570400
tt + 1000 s_2_5 > 0.0
tt - t_2_5 - 1000.726325 s_2_5  + 0.726325 s_2_8  > -995.920165
tt + 1000 s_1_6 > 0.0
tt - t_1_6 - 1004.203216 s_1_6  + 0.700536 s_1_5  + 0.700536 s_1_1  + 0.700536 s_1_4  + 0.700536 s_1_7  + 0.700536 s_1_3  + 0.700536 s_1_2  > -999.924900
tt + 1000 s_2_6 > 0.0
tt - t_2_6 - 1004.357949 s_2_6  + 0.726325 s_2_5  + 0.726325 s_2_1  + 0.726325 s_2_4  + 0.726325 s_2_7  + 0.726325 s_2_3  + 0.726325 s_2_2  > -998.934375
tt + 1000 s_1_7 > 0.0
tt - t_1_7 - 1000.000000 s_1_7  > -998.908300
tt + 1000 s_2_7 > 0.0
tt - t_2_7 - 1000.000000 s_2_7  > -997.194833
tt + 1000 s_1_8 > 0.0
tt - t_1_8 - 1000.000000 s_1_8  > -998.380900
tt + 1000 s_2_8 > 0.0
tt - t_2_8 - 1000.000000 s_2_8  > -996.856375
s_1_1 + s_2_1 = 1
s_1_2 + s_2_2 = 1
s_1_3 + s_2_3 = 1
s_1_4 + s_2_4 = 1
s_1_5 + s_2_5 = 1
s_1_6 + s_2_6 = 1
s_1_7 + s_2_7 = 1
s_1_8 + s_2_8 = 1
s_1_1 + s_1_2 + 1000 r_1_1_2 >= 2
- s_1_1 - s_1_2 - 1000 r_1_1_2 >= -1001
t_1_1 - t_1_2 - 1000.000000 u_1_1_2 - 0.700536 s_1_2  + 0.700536 s_1_7  + 2000.000000 r_1_1_2 > -999.043322
s_2_1 + s_2_2 + 1000 r_2_1_2 >= 2
- s_2_1 - s_2_2 - 1000 r_2_1_2 >= -1001
t_2_1 - t_2_2 - 1000.000000 u_2_1_2 - 0.726325 s_2_2  + 0.726325 s_2_7  + 2000.000000 r_2_1_2 > -992.180163
s_1_1 + s_1_3 + 1000 r_1_1_3 >= 2
- s_1_1 - s_1_3 - 1000 r_1_1_3 >= -1001
t_1_1 - t_1_3 - 1000.000000 u_1_1_3 - 1.401072 s_1_3  + 0.700536 s_1_8  + 0.700536 s_1_7  + 2000.000000 r_1_1_3 > -999.909900
s_2_1 + s_2_3 + 1000 r_2_1_3 >= 2
- s_2_1 - s_2_3 - 1000 r_2_1_3 >= -1001
t_2_1 - t_2_3 - 1000.000000 u_2_1_3 - 1.452650 s_2_3  + 0.726325 s_2_8  + 0.726325 s_2_7  + 2000.000000 r_2_1_3 > -998.806992
s_1_1 + s_1_4 + 1000 r_1_1_4 >= 2
- s_1_1 - s_1_4 - 1000 r_1_1_4 >= -1001
t_1_1 - t_1_4 - 1000.000000 u_1_1_4 - 0.700536 s_1_4  + 0.700536 s_1_7  + 2000.000000 r_1_1_4 > -999.879400
s_2_1 + s_2_4 + 1000 r_2_1_4 >= 2
- s_2_1 - s_2_4 - 1000 r_2_1_4 >= -1001
t_2_1 - t_2_4 - 1000.000000 u_2_1_4 - 0.726325 s_2_4  + 0.726325 s_2_7  + 2000.000000 r_2_1_4 > -998.328224
s_1_1 + s_1_5 + 1000 r_1_1_5 >= 2
- s_1_1 - s_1_5 - 1000 r_1_1_5 >= -1001
t_1_1 - t_1_5 - 1000.000000 u_1_1_5 - 0.700536 s_1_5  + 0.700536 s_1_8  + 2000.000000 r_1_1_5 > -999.570400
s_2_1 + s_2_5 + 1000 r_2_1_5 >= 2
- s_2_1 - s_2_5 - 1000 r_2_1_5 >= -1001
t_2_1 - t_2_5 - 1000.000000 u_2_1_5 - 0.726325 s_2_5  + 0.726325 s_2_8  + 2000.000000 r_2_1_5 > -995.920165
t_1_6 - t_1_1 - 1001.401072 s_1_1  + 0.700536 s_1_8  + 0.700536 s_1_7  > -999.020003
t_1_6 - t_2_1 - 1001.452650 s_2_1  + 0.726325 s_2_8  + 0.726325 s_2_7  > -992.218375
t_2_6 - t_1_1 - 1001.401072 s_1_1  + 0.700536 s_1_8  + 0.700536 s_1_7  > -999.020003
t_2_6 - t_2_1 - 1001.452650 s_2_1  + 0.726325 s_2_8  + 0.726325 s_2_7  > -992.218375
t_1_1 - t_1_7 - 1000.000000 s_1_7  > -998.908300
t_1_1 - t_2_7 - 1000.000000 s_2_7  > -997.194833
t_2_1 - t_1_7 - 1000.000000 s_1_7  > -998.908300
t_2_1 - t_2_7 - 1000.000000 s_2_7  > -997.194833
t_1_1 - t_1_8 - 1000.000000 s_1_8  > -998.380900
t_1_1 - t_2_8 - 1000.000000 s_2_8  > -996.856375
t_2_1 - t_1_8 - 1000.000000 s_1_8  > -998.380900
t_2_1 - t_2_8 - 1000.000000 s_2_8  > -996.856375
s_1_2 + s_1_1 + 1000 r_1_1_2 >= 2
- s_1_2 - s_1_1 - 1000 r_1_1_2 >= -1001
t_1_2 - t_1_1 + 1000.000000 u_1_1_2 - 1.401072 s_1_1  + 0.700536 s_1_8  + 0.700536 s_1_7  + 2000.000000 r_1_1_2 > 0.979997
s_2_2 + s_2_1 + 1000 r_2_1_2 >= 2
- s_2_2 - s_2_1 - 1000 r_2_1_2 >= -1001
t_2_2 - t_2_1 + 1000.000000 u_2_1_2 - 1.452650 s_2_1  + 0.726325 s_2_8  + 0.726325 s_2_7  + 2000.000000 r_2_1_2 > 7.781625
s_1_2 + s_1_3 + 1000 r_1_2_3 >= 2
- s_1_2 - s_1_3 - 1000 r_1_2_3 >= -1001
t_1_2 - t_1_3 - 1000.000000 u_1_2_3 - 1.401072 s_1_3  + 0.700536 s_1_8  + 0.700536 s_1_7  + 2000.000000 r_1_2_3 > -999.909900
s_2_2 + s_2_3 + 1000 r_2_2_3 >= 2
- s_2_2 - s_2_3 - 1000 r_2_2_3 >= -1001
t_2_2 - t_2_3 - 1000.000000 u_2_2_3 - 1.452650 s_2_3  + 0.726325 s_2_8  + 0.726325 s_2_7  + 2000.000000 r_2_2_3 > -998.806992
s_1_2 + s_1_4 + 1000 r_1_2_4 >= 2
- s_1_2 - s_1_4 - 1000 r_1_2_4 >= -1001
t_1_2 - t_1_4 - 1000.000000 u_1_2_4 - 0.700536 s_1_4  + 0.700536 s_1_7  + 2000.000000 r_1_2_4 > -999.879400
s_2_2 + s_2_4 + 1000 r_2_2_4 >= 2
- s_2_2 - s_2_4 - 1000 r_2_2_4 >= -1001
t_2_2 - t_2_4 - 1000.000000 u_2_2_4 - 0.726325 s_2_4  + 0.726325 s_2_7  + 2000.000000 r_2_2_4 > -998.328224
s_1_2 + s_1_5 + 1000 r_1_2_5 >= 2
- s_1_2 - s_1_5 - 1000 r_1_2_5 >= -1001
t_1_2 - t_1_5 - 1000.000000 u_1_2_5 - 0.700536 s_1_5  + 0.700536 s_1_8  + 2000.000000 r_1_2_5 > -999.570400
s_2_2 + s_2_5 + 1000 r_2_2_5 >= 2
- s_2_2 - s_2_5 - 1000 r_2_2_5 >= -1001
t_2_2 - t_2_5 - 1000.000000 u_2_2_5 - 0.726325 s_2_5  + 0.726325 s_2_8  + 2000.000000 r_2_2_5 > -995.920165
t_1_6 - t_1_2 - 1000.700536 s_1_2  + 0.700536 s_1_7  > -999.043322
t_1_6 - t_2_2 - 1000.726325 s_2_2  + 0.726325 s_2_7  > -992.180163
t_2_6 - t_1_2 - 1000.700536 s_1_2  + 0.700536 s_1_7  > -999.043322
t_2_6 - t_2_2 - 1000.726325 s_2_2  + 0.726325 s_2_7  > -992.180163
t_1_2 - t_1_7 - 1000.000000 s_1_7  > -998.908300
t_1_2 - t_2_7 - 1000.000000 s_2_7  > -997.194833
t_2_2 - t_1_7 - 1000.000000 s_1_7  > -998.908300
t_2_2 - t_2_7 - 1000.000000 s_2_7  > -997.194833
s_1_2 + s_1_8 + 1000 r_1_2_8 >= 2
- s_1_2 - s_1_8 - 1000 r_1_2_8 >= -1001
t_1_2 - t_1_8 - 1000.000000 u_1_2_8 - 0.000000 s_1_8  + 2000.000000 r_1_2_8 > -998.380900
s_2_2 + s_2_8 + 1000 r_2_2_8 >= 2
- s_2_2 - s_2_8 - 1000 r_2_2_8 >= -1001
t_2_2 - t_2_8 - 1000.000000 u_2_2_8 - 0.000000 s_2_8  + 2000.000000 r_2_2_8 > -996.856375
s_1_3 + s_1_1 + 1000 r_1_1_3 >= 2
- s_1_3 - s_1_1 - 1000 r_1_1_3 >= -1001
t_1_3 - t_1_1 + 1000.000000 u_1_1_3 - 1.401072 s_1_1  + 0.700536 s_1_8  + 0.700536 s_1_7  + 2000.000000 r_1_1_3 > 0.979997
s_2_3 + s_2_1 + 1000 r_2_1_3 >= 2
- s_2_3 - s_2_1 - 1000 r_2_1_3 >= -1001
t_2_3 - t_2_1 + 1000.000000 u_2_1_3 - 1.452650 s_2_1  + 0.726325 s_2_8  + 0.726325 s_2_7  + 2000.000000 r_2_1_3 > 7.781625
s_1_3 + s_1_2 + 1000 r_1_2_3 >= 2
- s_1_3 - s_1_2 - 1000 r_1_2_3 >= -1001
t_1_3 - t_1_2 + 1000.000000 u_1_2_3 - 0.700536 s_1_2  + 0.700536 s_1_7  + 2000.000000 r_1_2_3 > 0.956678
s_2_3 + s_2_2 + 1000 r_2_2_3 >= 2
- s_2_3 - s_2_2 - 1000 r_2_2_3 >= -1001
t_2_3 - t_2_2 + 1000.000000 u_2_2_3 - 0.726325 s_2_2  + 0.726325 s_2_7  + 2000.000000 r_2_2_3 > 7.819837
s_1_3 + s_1_4 + 1000 r_1_3_4 >= 2
- s_1_3 - s_1_4 - 1000 r_1_3_4 >= -1001
t_1_3 - t_1_4 - 1000.000000 u_1_3_4 - 0.700536 s_1_4  + 0.700536 s_1_7  + 2000.000000 r_1_3_4 > -999.879400
s_2_3 + s_2_4 + 1000 r_2_3_4 >= 2
- s_2_3 - s_2_4 - 1000 r_2_3_4 >= -1001
t_2_3 - t_2_4 - 1000.000000 u_2_3_4 - 0.726325 s_2_4  + 0.726325 s_2_7  + 2000.000000 r_2_3_4 > -998.328224
s_1_3 + s_1_5 + 1000 r_1_3_5 >= 2
- s_1_3 - s_1_5 - 1000 r_1_3_5 >= -1001
t_1_3 - t_1_5 - 1000.000000 u_1_3_5 - 0.700536 s_1_5  + 0.700536 s_1_8  + 2000.000000 r_1_3_5 > -999.570400
s_2_3 + s_2_5 + 1000 r_2_3_5 >= 2
- s_2_3 - s_2_5 - 1000 r_2_3_5 >= -1001
t_2_3 - t_2_5 - 1000.000000 u_2_3_5 - 0.726325 s_2_5  + 0.726325 s_2_8  + 2000.000000 r_2_3_5 > -995.920165
t_1_6 - t_1_3 - 1001.401072 s_1_3  + 0.700536 s_1_8  + 0.700536 s_1_7  > -999.909900
t_1_6 - t_2_3 - 1001.452650 s_2_3  + 0.726325 s_2_8  + 0.726325 s_2_7  > -998.806992
t_2_6 - t_1_3 - 1001.401072 s_1_3  + 0.700536 s_1_8  + 0.700536 s_1_7  > -999.909900
t_2_6 - t_2_3 - 1001.452650 s_2_3  + 0.726325 s_2_8  + 0.726325 s_2_7  > -998.806992
t_1_3 - t_1_7 - 1000.000000 s_1_7  > -998.908300
t_1_3 - t_2_7 - 1000.000000 s_2_7  > -997.194833
t_2_3 - t_1_7 - 1000.000000 s_1_7  > -998.908300
t_2_3 - t_2_7 - 1000.000000 s_2_7  > -997.194833
t_1_3 - t_1_8 - 1000.000000 s_1_8  > -998.380900
t_1_3 - t_2_8 - 1000.000000 s_2_8  > -996.856375
t_2_3 - t_1_8 - 1000.000000 s_1_8  > -998.380900
t_2_3 - t_2_8 - 1000.000000 s_2_8  > -996.856375
s_1_4 + s_1_1 + 1000 r_1_1_4 >= 2
- s_1_4 - s_1_1 - 1000 r_1_1_4 >= -1001
t_1_4 - t_1_1 + 1000.000000 u_1_1_4 - 1.401072 s_1_1  + 0.700536 s_1_8  + 0.700536 s_1_7  + 2000.000000 r_1_1_4 > 0.979997
s_2_4 + s_2_1 + 1000 r_2_1_4 >= 2
- s_2_4 - s_2_1 - 1000 r_2_1_4 >= -1001
t_2_4 - t_2_1 + 1000.000000 u_2_1_4 - 1.452650 s_2_1  + 0.726325 s_2_8  + 0.726325 s_2_7  + 2000.000000 r_2_1_4 > 7.781625
s_1_4 + s_1_2 + 1000 r_1_2_4 >= 2
- s_1_4 - s_1_2 - 1000 r_1_2_4 >= -1001
t_1_4 - t_1_2 + 1000.000000 u_1_2_4 - 0.700536 s_1_2  + 0.700536 s_1_7  + 2000.000000 r_1_2_4 > 0.956678
s_2_4 + s_2_2 + 1000 r_2_2_4 >= 2
- s_2_4 - s_2_2 - 1000 r_2_2_4 >= -1001
t_2_4 - t_2_2 + 1000.000000 u_2_2_4 - 0.726325 s_2_2  + 0.726325 s_2_7  + 2000.000000 r_2_2_4 > 7.819837
s_1_4 + s_1_3 + 1000 r_1_3_4 >= 2
- s_1_4 - s_1_3 - 1000 r_1_3_4 >= -1001
t_1_4 - t_1_3 + 1000.000000 u_1_3_4 - 1.401072 s_1_3  + 0.700536 s_1_8  + 0.700536 s_1_7  + 2000.000000 r_1_3_4 > 0.090100
s_2_4 + s_2_3 + 1000 r_2_3_4 >= 2
- s_2_4 - s_2_3 - 1000 r_2_3_4 >= -1001
t_2_4 - t_2_3 + 1000.000000 u_2_3_4 - 1.452650 s_2_3  + 0.726325 s_2_8  + 0.726325 s_2_7  + 2000.000000 r_2_3_4 > 1.193008
s_1_4 + s_1_5 + 1000 r_1_4_5 >= 2
- s_1_4 - s_1_5 - 1000 r_1_4_5 >= -1001
t_1_4 - t_1_5 - 1000.000000 u_1_4_5 - 0.700536 s_1_5  + 0.700536 s_1_8  + 2000.000000 r_1_4_5 > -999.570400
s_2_4 + s_2_5 + 1000 r_2_4_5 >= 2
- s_2_4 - s_2_5 - 1000 r_2_4_5 >= -1001
t_2_4 - t_2_5 - 1000.000000 u_2_4_5 - 0.726325 s_2_5  + 0.726325 s_2_8  + 2000.000000 r_2_4_5 > -995.920165
t_1_6 - t_1_4 - 1000.700536 s_1_4  + 0.700536 s_1_7  > -999.879400
t_1_6 - t_2_4 - 1000.726325 s_2_4  + 0.726325 s_2_7  > -998.328224
t_2_6 - t_1_4 - 1000.700536 s_1_4  + 0.700536 s_1_7  > -999.879400
t_2_6 - t_2_4 - 1000.726325 s_2_4  + 0.726325 s_2_7  > -998.328224
t_1_4 - t_1_7 - 1000.000000 s_1_7  > -998.908300
t_1_4 - t_2_7 - 1000.000000 s_2_7  > -997.194833
t_2_4 - t_1_7 - 1000.000000 s_1_7  > -998.908300
t_2_4 - t_2_7 - 1000.000000 s_2_7  > -997.194833
s_1_4 + s_1_8 + 1000 r_1_4_8 >= 2
- s_1_4 - s_1_8 - 1000 r_1_4_8 >= -1001
t_1_4 - t_1_8 - 1000.000000 u_1_4_8 - 0.000000 s_1_8  + 2000.000000 r_1_4_8 > -998.380900
s_2_4 + s_2_8 + 1000 r_2_4_8 >= 2
- s_2_4 - s_2_8 - 1000 r_2_4_8 >= -1001
t_2_4 - t_2_8 - 1000.000000 u_2_4_8 - 0.000000 s_2_8  + 2000.000000 r_2_4_8 > -996.856375
s_1_5 + s_1_1 + 1000 r_1_1_5 >= 2
- s_1_5 - s_1_1 - 1000 r_1_1_5 >= -1001
t_1_5 - t_1_1 + 1000.000000 u_1_1_5 - 1.401072 s_1_1  + 0.700536 s_1_8  + 0.700536 s_1_7  + 2000.000000 r_1_1_5 > 0.979997
s_2_5 + s_2_1 + 1000 r_2_1_5 >= 2
- s_2_5 - s_2_1 - 1000 r_2_1_5 >= -1001
t_2_5 - t_2_1 + 1000.000000 u_2_1_5 - 1.452650 s_2_1  + 0.726325 s_2_8  + 0.726325 s_2_7  + 2000.000000 r_2_1_5 > 7.781625
s_1_5 + s_1_2 + 1000 r_1_2_5 >= 2
- s_1_5 - s_1_2 - 1000 r_1_2_5 >= -1001
t_1_5 - t_1_2 + 1000.000000 u_1_2_5 - 0.700536 s_1_2  + 0.700536 s_1_7  + 2000.000000 r_1_2_5 > 0.956678
s_2_5 + s_2_2 + 1000 r_2_2_5 >= 2
- s_2_5 - s_2_2 - 1000 r_2_2_5 >= -1001
t_2_5 - t_2_2 + 1000.000000 u_2_2_5 - 0.726325 s_2_2  + 0.726325 s_2_7  + 2000.000000 r_2_2_5 > 7.819837
s_1_5 + s_1_3 + 1000 r_1_3_5 >= 2
- s_1_5 - s_1_3 - 1000 r_1_3_5 >= -1001
t_1_5 - t_1_3 + 1000.000000 u_1_3_5 - 1.401072 s_1_3  + 0.700536 s_1_8  + 0.700536 s_1_7  + 2000.000000 r_1_3_5 > 0.090100
s_2_5 + s_2_3 + 1000 r_2_3_5 >= 2
- s_2_5 - s_2_3 - 1000 r_2_3_5 >= -1001
t_2_5 - t_2_3 + 1000.000000 u_2_3_5 - 1.452650 s_2_3  + 0.726325 s_2_8  + 0.726325 s_2_7  + 2000.000000 r_2_3_5 > 1.193008
s_1_5 + s_1_4 + 1000 r_1_4_5 >= 2
- s_1_5 - s_1_4 - 1000 r_1_4_5 >= -1001
t_1_5 - t_1_4 + 1000.000000 u_1_4_5 - 0.700536 s_1_4  + 0.700536 s_1_7  + 2000.000000 r_1_4_5 > 0.120600
s_2_5 + s_2_4 + 1000 r_2_4_5 >= 2
- s_2_5 - s_2_4 - 1000 r_2_4_5 >= -1001
t_2_5 - t_2_4 + 1000.000000 u_2_4_5 - 0.726325 s_2_4  + 0.726325 s_2_7  + 2000.000000 r_2_4_5 > 1.671776
t_1_6 - t_1_5 - 1000.700536 s_1_5  + 0.700536 s_1_8  > -999.570400
t_1_6 - t_2_5 - 1000.726325 s_2_5  + 0.726325 s_2_8  > -995.920165
t_2_6 - t_1_5 - 1000.700536 s_1_5  + 0.700536 s_1_8  > -999.570400
t_2_6 - t_2_5 - 1000.726325 s_2_5  + 0.726325 s_2_8  > -995.920165
s_1_5 + s_1_7 + 1000 r_1_5_7 >= 2
- s_1_5 - s_1_7 - 1000 r_1_5_7 >= -1001
t_1_5 - t_1_7 - 1000.000000 u_1_5_7 - 0.000000 s_1_7  + 2000.000000 r_1_5_7 > -998.908300
s_2_5 + s_2_7 + 1000 r_2_5_7 >= 2
- s_2_5 - s_2_7 - 1000 r_2_5_7 >= -1001
t_2_5 - t_2_7 - 1000.000000 u_2_5_7 - 0.000000 s_2_7  + 2000.000000 r_2_5_7 > -997.194833
t_1_5 - t_1_8 - 1000.000000 s_1_8  > -998.380900
t_1_5 - t_2_8 - 1000.000000 s_2_8  > -996.856375
t_2_5 - t_1_8 - 1000.000000 s_1_8  > -998.380900
t_2_5 - t_2_8 - 1000.000000 s_2_8  > -996.856375
t_1_6 - t_1_7 - 1000.000000 s_1_7  > -998.908300
t_1_6 - t_2_7 - 1000.000000 s_2_7  > -997.194833
t_2_6 - t_1_7 - 1000.000000 s_1_7  > -998.908300
t_2_6 - t_2_7 - 1000.000000 s_2_7  > -997.194833
s_1_7 + s_1_5 + 1000 r_1_5_7 >= 2
- s_1_7 - s_1_5 - 1000 r_1_5_7 >= -1001
t_1_7 - t_1_5 + 1000.000000 u_1_5_7 - 0.700536 s_1_5  + 0.700536 s_1_8  + 2000.000000 r_1_5_7 > 0.429600
s_2_7 + s_2_5 + 1000 r_2_5_7 >= 2
- s_2_7 - s_2_5 - 1000 r_2_5_7 >= -1001
t_2_7 - t_2_5 + 1000.000000 u_2_5_7 - 0.726325 s_2_5  + 0.726325 s_2_8  + 2000.000000 r_2_5_7 > 4.079835
s_1_7 + s_1_8 + 1000 r_1_7_8 >= 2
- s_1_7 - s_1_8 - 1000 r_1_7_8 >= -1001
t_1_7 - t_1_8 - 1000.000000 u_1_7_8 - 0.000000 s_1_8  + 2000.000000 r_1_7_8 > -998.380900
s_2_7 + s_2_8 + 1000 r_2_7_8 >= 2
- s_2_7 - s_2_8 - 1000 r_2_7_8 >= -1001
t_2_7 - t_2_8 - 1000.000000 u_2_7_8 - 0.000000 s_2_8  + 2000.000000 r_2_7_8 > -996.856375
s_1_8 + s_1_2 + 1000 r_1_2_8 >= 2
- s_1_8 - s_1_2 - 1000 r_1_2_8 >= -1001
t_1_8 - t_1_2 + 1000.000000 u_1_2_8 - 0.700536 s_1_2  + 0.700536 s_1_7  + 2000.000000 r_1_2_8 > 0.956678
s_2_8 + s_2_2 + 1000 r_2_2_8 >= 2
- s_2_8 - s_2_2 - 1000 r_2_2_8 >= -1001
t_2_8 - t_2_2 + 1000.000000 u_2_2_8 - 0.726325 s_2_2  + 0.726325 s_2_7  + 2000.000000 r_2_2_8 > 7.819837
s_1_8 + s_1_4 + 1000 r_1_4_8 >= 2
- s_1_8 - s_1_4 - 1000 r_1_4_8 >= -1001
t_1_8 - t_1_4 + 1000.000000 u_1_4_8 - 0.700536 s_1_4  + 0.700536 s_1_7  + 2000.000000 r_1_4_8 > 0.120600
s_2_8 + s_2_4 + 1000 r_2_4_8 >= 2
- s_2_8 - s_2_4 - 1000 r_2_4_8 >= -1001
t_2_8 - t_2_4 + 1000.000000 u_2_4_8 - 0.726325 s_2_4  + 0.726325 s_2_7  + 2000.000000 r_2_4_8 > 1.671776
s_1_8 + s_1_7 + 1000 r_1_7_8 >= 2
- s_1_8 - s_1_7 - 1000 r_1_7_8 >= -1001
t_1_8 - t_1_7 + 1000.000000 u_1_7_8 - 0.000000 s_1_7  + 2000.000000 r_1_7_8 > 1.091700
s_2_8 + s_2_7 + 1000 r_2_7_8 >= 2
- s_2_8 - s_2_7 - 1000 r_2_7_8 >= -1001
t_2_8 - t_2_7 + 1000.000000 u_2_7_8 - 0.000000 s_2_7  + 2000.000000 r_2_7_8 > 2.805167
Binary
s_1_1
s_2_1
s_1_2
s_2_2
s_1_3
s_2_3
s_1_4
s_2_4
s_1_5
s_2_5
s_1_6
s_2_6
s_1_7
s_2_7
s_1_8
s_2_8
u_1_1_2
r_1_1_2
u_2_1_2
r_2_1_2
u_1_1_3
r_1_1_3
u_2_1_3
r_2_1_3
u_1_1_4
r_1_1_4
u_2_1_4
r_2_1_4
u_1_1_5
r_1_1_5
u_2_1_5
r_2_1_5
u_1_2_3
r_1_2_3
u_2_2_3
r_2_2_3
u_1_2_4
r_1_2_4
u_2_2_4
r_2_2_4
u_1_2_5
r_1_2_5
u_2_2_5
r_2_2_5
u_1_2_8
r_1_2_8
u_2_2_8
r_2_2_8
u_1_3_4
r_1_3_4
u_2_3_4
r_2_3_4
u_1_3_5
r_1_3_5
u_2_3_5
r_2_3_5
u_1_4_5
r_1_4_5
u_2_4_5
r_2_4_5
u_1_4_8
r_1_4_8
u_2_4_8
r_2_4_8
u_1_5_7
r_1_5_7
u_2_5_7
r_2_5_7
u_1_7_8
r_1_7_8
u_2_7_8
r_2_7_8

End
